problems/csplib-prob065/opd-models/noch/O2/minion/model_2-small_bibd_06_50_25-solution000001.solution
language Essence 1.3

letting lambda be 17
letting opd be
        {{1, 2, 3, 4, 5, 6, 7, 8, 9, 10, 11, 12, 13, 14, 15, 16, 17, 18, 19, 20, 21, 22, 23, 24, 25},
         {1, 2, 3, 4, 5, 6, 7, 8, 9, 10, 11, 12, 13, 14, 15, 16, 17, 26, 27, 28, 29, 30, 31, 32, 33},
         {1, 2, 3, 4, 5, 6, 7, 8, 9, 10, 11, 12, 13, 14, 15, 16, 17, 34, 35, 36, 37, 38, 39, 40, 41},
         {1, 2, 3, 4, 5, 6, 7, 8, 9, 10, 11, 12, 13, 14, 15, 16, 17, 42, 43, 44, 45, 46, 47, 48, 49},
         {1, 2, 3, 4, 5, 6, 7, 8, 9, 10, 11, 12, 13, 14, 18, 19, 20, 26, 27, 28, 34, 35, 36, 42, 43},
         {1, 2, 3, 4, 5, 6, 7, 8, 9, 10, 11, 12, 13, 14, 18, 19, 20, 29, 30, 31, 37, 38, 39, 44, 45}}
$ Visualisation for opd
$  1  2  3  4  5  6  7  8  9 10 11 12 13 14 15 16 17 18 19 20 21 22 23 24 25
$  1  2  3  4  5  6  7  8  9 10 11 12 13 14 15 16 17 26 27 28 29 30 31 32 33
$  1  2  3  4  5  6  7  8  9 10 11 12 13 14 15 16 17 34 35 36 37 38 39 40 41
$  1  2  3  4  5  6  7  8  9 10 11 12 13 14 15 16 17 42 43 44 45 46 47 48 49
$  1  2  3  4  5  6  7  8  9 10 11 12 13 14 18 19 20 26 27 28 34 35 36 42 43
$  1  2  3  4  5  6  7  8  9 10 11 12 13 14 18 19 20 29 30 31 37 38 39 44 45

